db/data/461630851242739211955629365227014145.z3.out
sat
-------------------
618.373914672
